HUN,8,6,189
2,23,0,22,1,5,3,13,5,20,4,6
0,21,2,5,1,30,4,23,5,4,3,3
0,17,1,13,2,11,3,25,5,13,4,28
0,12,1,29,2,21,3,1,5,18,4,15
0,22,2,25,1,17,5,9,3,25,4,18
2,20,1,28,0,22,5,24,3,1,4,13
2,12,1,23,0,24,5,25,4,13,3,8
1,8,2,5,0,3,3,29,4,28,5,26
